data/processed_heuristic-threshold/instances/1/6/ds_516_courier_1656/pairwise.tsp
NAME: ds_516_courier_1656
TYPE: TSP
COMMENT: nil
DIMENSION: 7
EDGE_WEIGHT_TYPE: EXPLICIT
EDGE_WEIGHT_FORMAT: FULL_MATRIX
EDGE_WEIGHT_SECTION
9999 2936 2956 3116 2860 2715 53 
2936 9999 316 411 82 381 2925 
2956 316 9999 166 298 242 2951 
3116 411 166 9999 421 403 3111 
2860 82 298 421 9999 314 2850 
2715 381 242 403 314 9999 2710 
53 2925 2951 3111 2850 2710 9999 
