data/processed_heuristic-threshold/instances/1/6/ds_516_courier_1656/pairwise.sol
7
0 6 4 1 3 2 5 
